42 45 71 64 19 8 53 46 4 13 24 
26 58 
72 39 23 7 18 55 
65 30 44 75 22 10 70 1 
36 47 12 29 38 9 52 32 37 
73 74 2 
14 15 67 41 6 48 56 54 3 35 60 17 
69 27 28 40 61 57 68 66 21 25 50 
63 33 34 62 11 16 51 5 20 49 43 59 31 

